73	68	60	57	82	90	100	103	120	116	111	133	141	169	178	187	189	193	192	188	184	176	170	190	208	198	214	
44	48	52	57	82	90	100	103	120	116	111	96	84	78	75	61	55	46	40	19	14	16	
97	88	103	120	116	111	133	141	169	178	187	201	211	206	199	204	209	219	225	245	248	262	273	281	295	308	325	353	366	382	404	395	
97	88	103	100	90	82	57	41	34	20	11	2	4	1	
54	56	78	84	96	111	133	141	169	178	187	201	211	206	199	204	209	219	225	245	248	262	273	281	295	308	319	338	348	367	
54	56	78	84	96	111	133	141	169	178	187	189	193	192	188	184	176	170	190	208	232	
54	56	78	84	96	111	133	141	169	178	187	201	211	206	199	204	209	219	225	245	238	241	251	249	240	227	
109	103	120	116	111	133	141	169	178	187	189	193	192	162	130	105	106	110	126	122	135	143	131	114	134	163	186	175	167	157	137	124	
83	90	100	103	120	116	111	133	141	169	178	187	201	211	206	199	204	209	219	225	245	248	262	273	288	305	318	324	327	336	362	369	378	393	398	416	425	446	451	459	463	476	
127	120	116	111	133	141	169	178	187	201	211	206	199	204	209	219	225	245	248	262	273	288	305	318	324	327	336	347	352	359	363	368	380	383	389	403	422	432	442	485	503	498	510	521	542	562	571	584	620	627	633	642	653	660	665	674	672	659	646	636	643	648	629	641	628	
127	120	116	111	133	141	169	178	187	201	211	206	199	204	209	219	225	245	238	241	251	268	286	285	282	275	266	
127	120	116	111	133	141	169	178	187	189	193	192	162	130	105	106	110	126	122	135	143	131	114	134	163	186	175	167	157	137	155	142	
111	133	141	169	178	187	201	211	206	199	204	209	219	225	245	248	262	273	288	305	318	324	327	336	362	369	378	393	398	416	425	439	434	427	420	407	
111	133	141	169	151	138	128	119	136	121	
156	148	144	133	141	169	178	187	189	193	192	188	184	176	149	
156	148	144	133	111	96	84	78	75	61	55	46	40	19	12	
133	141	169	178	187	201	211	206	199	204	209	219	225	245	248	262	273	288	305	318	324	327	336	347	352	359	363	368	380	383	389	403	422	432	442	485	503	498	510	521	542	562	571	584	620	627	633	642	653	661	668	679	683	689	694	696	707	715	714	
169	178	187	201	211	206	199	204	209	219	225	245	248	262	273	281	295	308	325	353	366	382	
212	200	184	188	192	193	189	187	201	211	206	199	204	209	219	225	245	248	262	273	288	305	318	324	327	336	347	352	359	363	368	380	383	389	403	422	432	442	485	503	498	510	521	542	562	571	584	620	627	633	642	653	638	630	618	611	589	600	603	601	595	577	570	558	552	538	529	528	520	501	488	465	474	473	455	436	
206	199	204	209	219	225	245	246	247	250	253	257	258	260	243	269	292	
224	221	218	215	213	211	206	199	204	209	219	225	245	248	262	273	288	305	318	324	327	336	362	369	378	393	398	416	425	446	451	459	463	476	
199	204	209	219	225	245	248	262	273	288	305	318	324	327	336	362	369	378	393	398	416	425	439	449	470	481	460	437	429	
239	235	234	233	231	229	225	245	248	262	273	288	305	312	
239	235	234	233	231	229	225	219	209	204	199	206	211	201	187	178	169	151	138	128	119	136	121	
239	235	234	233	231	229	225	245	248	262	273	288	305	318	324	327	336	347	352	359	363	368	380	383	389	403	422	432	442	485	503	498	510	521	542	549	561	565	574	568	585	
225	245	248	262	273	288	305	318	324	327	336	347	352	359	363	368	380	383	389	403	422	432	442	485	503	498	510	521	542	562	571	584	620	627	633	642	653	638	630	618	611	589	600	603	601	595	577	570	558	552	538	529	528	520	501	488	465	474	473	487	492	478	468	
287	274	291	293	303	308	295	281	273	262	248	245	225	219	209	205	
294	302	295	281	273	288	305	318	324	327	336	362	369	378	393	398	416	425	439	434	427	420	407	
294	302	295	281	273	262	248	245	238	241	251	268	286	272	267	254	256	
367	348	338	319	308	295	281	273	288	305	312	
367	348	338	319	308	295	281	273	288	305	318	324	327	336	347	352	359	363	368	380	383	389	403	422	432	442	485	503	498	510	521	542	562	571	584	620	627	633	642	653	661	668	679	683	689	694	696	707	715	714	
382	366	353	325	308	295	281	273	288	305	318	324	327	336	334	341	346	329	323	315	307	313	
288	305	318	324	327	336	347	352	359	363	368	380	383	389	403	422	432	442	485	503	498	510	521	542	562	571	584	620	627	633	642	653	638	630	618	611	589	600	603	601	595	577	570	558	552	538	529	528	520	501	488	465	474	473	487	492	506	515	505	531	
362	336	327	324	318	305	288	273	262	248	245	246	247	250	253	257	258	260	304	
362	336	327	324	318	305	288	273	262	248	245	225	219	209	204	199	206	211	201	187	189	193	192	162	130	105	106	110	126	122	135	143	131	114	94	
612	607	606	576	564	557	546	524	513	499	489	454	450	440	431	415	410	400	393	378	369	362	336	347	352	359	363	368	380	383	389	403	422	432	442	485	503	498	510	521	542	562	571	584	620	627	633	642	653	660	665	674	672	659	646	636	643	648	629	641	628	623	613	
475	496	513	499	489	454	450	440	431	415	410	400	393	378	369	362	336	347	352	359	363	368	380	383	389	403	422	432	442	485	503	498	510	521	542	562	571	584	620	627	633	642	653	661	668	679	683	689	694	696	695	691	685	684	688	662	654	591	555	526	508	582	593	588	587	
475	496	513	499	489	454	450	440	431	415	410	400	393	378	369	362	336	347	352	359	363	368	380	383	389	403	422	432	442	485	503	498	510	521	542	562	571	584	620	627	633	642	653	661	668	679	686	701	708	717	724	
477	489	454	450	440	431	415	410	400	393	378	369	362	336	327	324	318	305	288	273	262	248	245	225	219	209	204	199	206	211	201	187	189	193	192	188	184	176	170	190	208	232	
477	489	454	450	440	431	415	410	400	393	378	369	362	336	347	352	359	363	368	380	383	389	403	422	432	442	485	503	498	510	521	542	549	561	565	580	
456	435	453	486	496	513	499	489	454	450	440	431	415	410	400	393	378	369	362	336	327	324	318	305	288	273	262	248	245	225	219	209	204	199	206	211	201	187	178	169	141	133	111	116	120	103	100	90	82	57	60	68	49	27	18	7	
411	414	435	453	486	496	513	499	489	454	450	440	431	415	410	400	393	378	369	362	336	327	324	318	305	288	273	281	295	308	325	353	339	351	342	330	
205	209	219	225	245	248	262	273	288	305	318	324	327	336	347	352	359	363	368	380	383	389	403	422	432	442	
205	209	204	199	206	211	201	187	178	169	141	133	111	96	84	78	75	61	55	46	40	19	14	
203	217	236	241	238	245	225	219	209	204	199	206	211	201	187	189	193	192	188	184	
203	217	236	241	238	245	248	262	273	288	305	318	324	327	336	347	352	359	363	368	380	383	389	403	422	432	442	485	503	498	510	521	542	549	561	565	580	592	604	632	634	640	655	
203	217	236	241	238	245	248	262	273	281	295	308	325	353	366	382	404	395	
511	535	518	489	454	450	440	431	415	410	400	393	378	369	362	336	347	352	359	363	368	380	383	389	403	422	432	442	485	503	498	510	521	542	562	571	584	620	627	633	642	653	661	668	679	683	689	694	702	713	720	
511	535	518	489	454	450	440	431	415	410	400	393	378	369	362	336	327	324	318	305	288	273	262	248	245	225	219	209	204	199	206	211	201	187	178	169	151	138	128	119	136	161	152	139	132	123	
680	674	665	660	653	642	633	627	620	584	571	562	542	549	561	565	574	568	
613	623	628	641	629	648	643	636	646	659	672	674	665	660	653	642	633	627	620	584	571	562	542	549	561	565	480	
613	623	628	641	629	648	643	636	646	659	672	674	665	660	653	661	668	679	683	689	694	696	703	710	718	
641	629	648	643	636	646	659	672	674	665	660	653	642	633	627	620	584	571	562	542	521	510	498	503	485	442	432	422	403	389	383	380	368	363	359	352	347	336	327	324	318	305	288	273	262	248	245	225	219	209	204	199	206	211	201	187	189	193	192	162	130	105	95	67	66	65	
641	629	648	643	636	646	659	672	674	665	660	653	642	633	627	620	584	571	562	542	521	510	498	503	485	442	432	422	403	389	383	380	368	363	359	352	347	336	327	324	318	305	288	273	262	248	245	225	219	209	204	199	206	211	201	187	178	169	151	138	128	119	136	161	152	139	179	
628	641	629	648	643	636	646	659	672	674	665	660	653	638	630	618	611	589	600	603	601	595	577	570	558	552	538	529	528	520	501	488	465	474	473	487	492	506	515	505	
628	641	629	648	643	636	646	659	672	674	665	660	653	661	668	679	683	689	694	696	695	691	685	684	688	662	654	591	555	526	508	
559	518	489	454	450	440	431	415	410	400	393	378	369	362	336	327	324	318	305	288	273	281	295	308	325	353	366	382	404	419	482	
559	518	489	454	450	440	431	415	410	400	393	378	369	362	336	347	352	359	363	368	380	383	389	403	422	432	442	485	503	498	510	521	542	562	571	584	620	627	633	642	653	661	668	679	683	689	694	696	703	710	718	
559	518	489	454	450	440	431	415	410	400	393	378	369	362	336	347	352	359	363	368	380	383	389	403	422	432	442	485	503	498	510	521	542	562	571	584	620	627	633	642	653	638	630	618	611	589	600	603	601	595	577	570	586	598	622	
72	84	96	111	133	141	169	178	187	201	211	206	199	204	209	219	225	245	238	241	251	268	286	285	283	
72	84	96	111	133	141	169	178	187	189	193	192	162	130	105	106	110	126	122	135	143	131	114	134	163	
72	84	96	111	116	120	103	100	90	82	57	41	34	30	25	21	13	10	5	6	
717	708	701	686	679	668	661	653	638	630	618	611	589	600	603	601	595	577	570	558	552	538	529	528	520	501	488	465	474	473	487	492	506	
539	560	589	611	618	630	638	653	642	633	627	620	584	571	562	542	521	510	498	503	485	442	432	422	403	389	383	380	368	363	359	352	347	336	362	369	378	393	398	416	425	439	449	470	481	460	483	467	
539	560	589	611	618	630	638	653	661	668	679	683	689	694	696	695	691	685	684	688	693	704	716	722	
188	192	193	189	187	178	169	141	133	111	116	120	103	100	90	82	57	60	68	49	53	58	45	35	37	36	33	
188	192	193	189	187	178	169	141	133	111	116	120	103	100	90	82	57	41	34	20	11	2	4	1	
110	106	105	130	162	192	193	189	187	178	169	141	133	111	116	120	103	100	90	82	57	41	34	30	25	21	13	10	5	6	
149	176	184	188	192	193	189	187	178	169	151	138	128	119	136	161	152	139	132	123	
407	420	427	434	439	425	416	398	393	381	371	358	365	361	355	350	386	377	
407	420	427	434	439	425	416	398	393	378	369	362	336	347	352	359	363	368	380	383	389	403	422	432	442	485	503	498	510	521	542	549	561	565	580	
476	463	459	451	446	425	416	398	393	378	369	362	336	327	324	318	305	288	273	262	248	245	246	247	250	253	257	258	260	243	269	264	
476	463	459	451	446	425	416	398	393	378	369	362	336	347	352	359	363	368	380	383	389	403	422	432	442	485	503	498	510	521	542	562	571	584	620	627	633	642	653	661	668	679	683	689	694	696	695	691	685	684	688	693	704	716	
312	305	318	324	327	336	362	369	378	393	400	410	415	431	440	450	454	489	499	513	496	486	453	435	421	417	412	409	413	
33	36	37	35	45	58	53	49	68	60	57	82	90	100	103	120	116	111	133	141	169	151	138	128	119	136	161	152	
652	632	604	592	580	565	561	549	542	521	510	498	503	485	442	432	422	403	389	383	380	368	363	359	352	347	336	327	324	318	305	288	273	262	248	245	225	219	209	204	199	206	211	201	187	178	169	151	138	128	119	115	108	85	
652	632	604	592	580	565	561	549	542	562	571	584	620	627	633	642	653	661	668	679	683	689	694	696	695	691	685	692	700	699	
720	713	702	694	696	703	710	
96	111	133	141	169	178	187	201	211	206	199	204	209	219	225	245	248	262	273	288	305	318	324	327	336	362	369	378	393	398	416	425	439	449	470	481	460	483	467	
389	403	422	432	442	485	503	498	510	521	542	562	571	584	620	627	633	642	653	661	668	679	683	689	694	696	695	691	697	711	719	
389	383	380	368	363	359	352	347	336	327	324	318	305	288	273	262	248	245	225	219	209	204	199	206	211	201	187	178	169	141	133	111	116	120	103	100	90	82	57	41	34	20	11	2	4	1	
74	79	75	78	84	96	111	133	141	169	178	187	201	211	206	199	204	209	219	225	245	248	262	273	288	305	318	324	327	336	347	352	359	363	368	380	383	389	403	422	432	442	485	503	498	510	521	542	562	571	584	620	627	633	642	653	638	630	618	611	589	600	603	601	595	577	570	558	552	538	529	528	520	501	488	465	474	473	487	492	506	515	505	531	
171	180	167	175	186	163	134	114	131	143	135	122	126	110	106	105	130	162	192	193	189	187	201	211	206	199	204	209	219	225	245	248	262	273	281	295	308	325	353	339	351	342	330	
216	202	232	208	190	170	176	184	188	192	162	130	105	106	110	126	122	135	143	131	114	134	163	186	175	167	157	137	124	
216	202	232	208	190	170	176	184	188	192	193	189	187	201	211	206	199	204	209	219	225	245	248	262	273	288	305	318	324	327	336	347	352	359	363	368	380	383	389	403	422	432	442	485	503	498	510	521	542	562	571	584	620	627	633	642	653	661	668	679	683	689	694	696	695	691	685	692	700	
123	132	139	152	161	136	119	128	138	151	169	178	187	201	211	206	199	204	209	219	225	245	238	241	251	268	286	272	267	254	256	
232	208	190	170	176	184	188	192	193	189	187	201	211	206	199	204	209	219	225	245	246	247	250	253	257	258	260	243	269	244	
165	132	139	152	161	136	119	128	138	151	169	178	187	189	193	192	188	184	200	220	
165	132	139	152	161	136	119	128	138	151	169	141	133	111	116	120	103	100	90	82	57	41	34	20	11	2	
220	200	184	188	192	193	189	187	201	211	206	199	204	209	219	225	245	248	262	273	281	295	308	325	353	366	382	404	419	
220	200	184	188	192	193	189	187	178	169	141	133	111	116	120	103	100	90	82	57	60	68	49	53	58	45	29	9	15	28	26	50	
244	269	243	260	258	257	253	250	247	246	245	248	262	273	288	305	318	324	327	336	347	352	359	363	368	380	383	389	403	422	432	442	485	503	498	510	521	542	549	561	565	580	592	604	632	634	640	655	669	
254	267	272	286	268	251	241	238	245	225	219	209	204	199	206	211	201	187	178	169	141	133	111	96	84	78	75	61	55	46	40	19	12	
304	260	258	257	253	250	247	246	245	248	262	273	288	305	318	324	327	336	347	352	359	363	368	380	383	389	403	422	432	442	485	503	498	510	521	542	549	561	565	580	592	604	632	652	671	
328	321	317	339	353	325	308	295	281	273	262	248	245	225	219	209	204	199	206	211	201	187	178	169	141	133	111	116	120	103	100	90	82	57	60	68	49	53	58	45	29	9	
283	285	286	268	251	241	238	245	225	219	209	204	199	206	211	201	187	178	169	141	133	111	116	120	103	100	90	82	57	60	68	49	53	58	45	29	9	
283	285	286	268	251	241	238	245	248	262	273	288	305	318	324	327	336	347	352	359	363	368	380	383	389	403	422	432	442	485	503	498	510	521	542	562	571	584	620	627	633	642	653	661	668	679	683	689	694	696	695	691	685	684	688	693	704	716	712	
419	404	382	366	353	325	308	295	281	273	288	305	318	324	327	336	347	352	359	363	368	380	383	389	403	422	432	442	485	503	498	510	521	542	562	571	584	620	627	633	642	653	661	668	679	683	689	694	696	695	691	685	684	688	662	654	591	555	526	575	651	
418	406	402	387	403	422	432	442	485	503	498	510	521	542	549	561	565	605	
438	457	465	474	473	487	492	478	
438	457	465	488	501	520	528	529	538	552	558	570	577	595	601	603	600	589	611	618	630	638	653	661	668	679	683	689	694	696	707	715	714	
594	583	574	565	605	
669	655	640	634	632	604	592	580	565	561	549	542	562	571	584	620	627	633	642	653	661	668	679	683	689	694	696	695	691	685	684	688	693	704	716	722	
506	492	487	473	474	465	488	501	520	528	529	538	552	558	570	577	595	601	603	600	589	611	618	630	638	653	661	668	679	683	689	694	696	703	710	718	
632	604	592	580	565	561	549	542	562	571	584	620	627	633	642	653	638	630	618	611	589	600	603	601	595	577	570	586	598	622	
724	717	708	701	686	679	683	689	694	696	703	710	
713	702	694	696	695	691	685	684	688	693	704	716	712	
721	715	707	696	695	691	685	684	688	693	704	690	
719	711	697	691	685	684	688	693	704	690	
8	15	9	29	45	58	53	49	68	60	57	41	34	30	25	21	13	3	
12	19	40	32	
